NAME: random problem
TYPE: MTSP
COMMENT: MTSP problem for MRS UAV summer school
DIMENSION: 20
NUMBER_OF_ROBOTS: 2
START_TARGET_INDEXES: 1, 2
NEIGHBORHOOD_RADIUS: 2
EDGE_WEIGHT_TYPE: EUC_2D
NODE_COORD_SECTION
1 15.0 -21.0
2 -5.0 -25.0
3 -23.0 -16.0
4 30.8 -0.8
5 -28.1 -2.3
6 -10.9 4.5
7 9.1 -21.6
8 -14.6 8.2
9 30.1 1.6
10 32.5 -21.5
11 -7.9 -6.7
12 -16.3 -11.1
13 -7.5 -27.1
14 17.1 -8.9
15 13.3 -2.0
16 1.1 -0.6
17 36.4 -3.0
18 34.8 -8.9
19 -2.2 -27.1
20 13.7 -6.9
EOF
